(declare-const delta_i Int)
(declare-const delta_tmp Int)
(declare-const delta_j Int)
(assert (exists
         ((|tmp'?1| Int) (|j'?2| Int) (|i'?3| Int) (phi_j?4 Int)
            (phi_i?5 Int) (havoc?6 Int) (i?7 Int) (j?8 Int) (tmp?9 Int)
            (x?10 Int) (y?11 Int))
         (and (<= (- i?7) 0) (= j?8 0) (<= (- x?10) 0) (<= (- y?11) 0)
                (= (+ (- y?11) x?10) 0) (= j?8 0)
                (or (< havoc?6 0) (< 0 havoc?6))
                (or (and (= (+ (- y?11) x?10) 0) (= (+ (- phi_i?5) i?7 1) 0)
                           (= (+ (- phi_j?4) j?8) 0))
                      (and (or (< (+ (- y?11) x?10) 0)
                                 (< 0 (+ (- y?11) x?10)))
                             (= (+ (- phi_i?5) i?7) 0)
                             (= (+ (- phi_j?4) j?8 1) 0)))
                (= (+ |tmp'?1| (- havoc?6)) 0) (= (+ |j'?2| (- phi_j?4)) 0)
                (= (+ |i'?3| (- phi_i?5)) 0) (= delta_i (+ |i'?3| (- i?7)))
                (= delta_j (+ |j'?2| (- j?8)))
                (= delta_tmp (+ |tmp'?1| (- tmp?9))))))
(check-sat)
